c turning on binary mode checking
c parsing input formula with 259840 variables and 1039934 clauses
c finished parsing, read 2958513 bytes from proof file
c detected empty clause; start verification via backward checking
c 1937 of 1039934 clauses in core                            
c 589 of 117583 lemmas in core using 16794 resolution steps
c 0 RAT lemmas in core; 43 redundant literals in core lemmas
s VERIFIED
c verification time: 1.452 seconds
